NAME : mEgtspf
TYPE : ATSP
DIMENSION : 6
EDGE_WEIGHT_TYPE : EXPLICIT
EDGE_WEIGHT_FORMAT : FULL_MATRIX
EDGE_WEIGHT_SECTION
99999 -999996 0 99999 0 0 
8 99999 0 99999 0 0 
7 5 99999 99999 0 0 
4 4 0 99999 0 0 
9 99999 0 99999 99999 0 
-999998 6 0 6 0 99999 
EOF
